fuel_planner/utils/lkh_tsp_solver/resource/single.tsp
NAME : single
TYPE : ATSP
DIMENSION : 15
EDGE_WEIGHT_TYPE : EXPLICIT
EDGE_WEIGHT_FORMAT : FULL_MATRIX
EDGE_WEIGHT_SECTION
0 50144 50169 50159 50125 50136 50127 50114 50158 50081 923 141 355 439 374 
0 0 456 494 636 692 85 175 279 259 595 50000 50000 50000 50000 
0 456 0 193 410 453 491 527 243 471 840 50000 50000 50000 50000 
0 494 193 0 333 380 489 543 243 486 835 50000 50000 50000 50000 
0 636 410 333 0 165 554 624 441 448 809 50000 50000 50000 50000 
0 692 453 380 165 0 623 668 561 490 858 50000 50000 50000 50000 
0 85 491 489 554 623 0 105 189 201 535 50000 50000 50000 50000 
0 175 527 543 624 668 105 0 343 250 434 50000 50000 50000 50000 
0 279 243 243 441 561 189 343 0 296 660 50000 50000 50000 50000 
0 259 471 486 448 490 201 250 296 0 386 50000 50000 50000 50000 
0 595 840 835 809 858 535 434 660 386 0 50000 50000 50000 50000 
0 50000 50000 50000 50000 50000 50000 50000 50000 50000 50000 0 178 188 261 
0 50000 50000 50000 50000 50000 50000 50000 50000 50000 50000 178 0 91 248 
0 50000 50000 50000 50000 50000 50000 50000 50000 50000 50000 188 91 0 158 
0 50000 50000 50000 50000 50000 50000 50000 50000 50000 50000 261 248 158 0 
EOF