fuel_planner/utils/lkh_tsp_solver/resource/single.txt
NAME : single.52587.tour
COMMENT : Length = 52587
COMMENT : Found by LKH [Keld Helsgaun] Sat Sep  2 20:58:44 2023
TYPE : TOUR
DIMENSION : 15
TOUR_SECTION
1
12
13
14
15
6
5
4
3
9
7
2
8
10
11
-1
EOF
